Nb of jobs, Nb of Machines, Time seed, Machine seed, Upper bound, Lower bound
8,8,-1,-1,-1,-1
Times
30,52,24,98,19,71,80,16
47,50,19,14,64,68,12,95
75,88,65,30,64,22,24,84
64,64,97,39,73,23,81,85
48,50,29,35,33,92,26,21
48,33,10,61,21,55,54,53
77,50,86,90,46,24,22,67
37,31,18,64,67,40,69,3
Machines
4,8,5,3,1,7,6,2
1,7,5,2,8,3,4,6
1,5,3,6,7,4,8,2
7,3,2,1,8,6,5,4
4,5,3,6,1,2,7,8
5,7,3,4,6,8,2,1
1,4,2,5,7,8,3,6
5,7,4,1,2,8,6,3
